p cnf 607 1435
1 -2 0
2 -1 0
3 4 0
5 4 0
6 4 0
-3 -5 -6 -4 0
-7 4 -8 0
7 -4 -8 0
8 -4 -7 0
7 4 8 0
-8 0
5 9 0
6 9 0
-5 -6 -9 0
9 -10 -11 0
10 -9 -11 0
11 -9 -10 0
10 9 11 0
-11 0
-12 9 -13 0
12 -9 -13 0
13 -9 -12 0
12 9 13 0
-13 0
3 14 0
5 14 0
6 14 0
15 14 0
16 14 0
-17 0
-18 14 -19 0
18 -14 -19 0
19 -14 -18 0
18 14 19 0
-19 0
3 20 0
5 20 0
6 20 0
16 20 0
-3 -5 -6 -16 -20 0
20 -21 -22 0
21 -20 -22 0
22 -20 -21 0
21 20 22 0
-22 0
23 24 0
25 24 0
26 24 0
27 24 0
28 24 0
29 24 0
-30 0
-31 24 -32 0
31 -24 -32 0
32 -24 -31 0
31 24 32 0
-32 0
25 33 0
26 33 0
27 33 0
28 33 0
29 33 0
-34 0
33 -35 -36 0
35 -33 -36 0
36 -33 -35 0
35 33 36 0
-36 0
26 37 0
27 37 0
28 37 0
29 37 0
-38 0
37 -39 -40 0
39 -37 -40 0
40 -37 -39 0
39 37 40 0
-40 0
37 -41 -42 0
41 -37 -42 0
42 -37 -41 0
41 37 42 0
-42 0
28 43 0
29 43 0
26 43 0
27 43 0
-44 0
-45 43 -46 0
45 -43 -46 0
46 -43 -45 0
45 43 46 0
-46 0
-47 37 -48 0
47 -37 -48 0
48 -37 -47 0
47 37 48 0
-48 0
49 50 0
51 50 0
52 50 0
53 50 0
54 50 0
55 50 0
-56 0
-57 50 -58 0
57 -50 -58 0
58 -50 -57 0
57 50 58 0
-58 0
51 59 0
52 59 0
53 59 0
54 59 0
55 59 0
-60 0
59 -61 -62 0
61 -59 -62 0
62 -59 -61 0
61 59 62 0
-62 0
52 63 0
53 63 0
54 63 0
55 63 0
-64 0
63 -65 -66 0
65 -63 -66 0
66 -63 -65 0
65 63 66 0
-66 0
63 -67 -68 0
67 -63 -68 0
68 -63 -67 0
67 63 68 0
-68 0
63 -69 -70 0
69 -63 -70 0
70 -63 -69 0
69 63 70 0
-70 0
63 -71 -72 0
71 -63 -72 0
72 -63 -71 0
71 63 72 0
-72 0
2 73 0
74 73 0
75 73 0
76 73 0
-77 0
-78 73 -79 0
78 -73 -79 0
79 -73 -78 0
78 73 79 0
-79 0
2 80 0
75 80 0
76 80 0
-2 -75 -76 -80 0
-81 80 -82 0
81 -80 -82 0
82 -80 -81 0
81 80 82 0
-82 0
2 83 0
76 83 0
-2 -76 -83 0
83 -84 -85 0
84 -83 -85 0
85 -83 -84 0
84 83 85 0
-85 0
86 87 0
88 87 0
89 87 0
90 87 0
91 87 0
92 87 0
-93 0
-94 87 -95 0
94 -87 -95 0
95 -87 -94 0
94 87 95 0
-95 0
88 96 0
89 96 0
90 96 0
91 96 0
92 96 0
-97 0
96 -98 -99 0
98 -96 -99 0
99 -96 -98 0
98 96 99 0
-99 0
89 100 0
90 100 0
91 100 0
92 100 0
-101 0
100 -102 -103 0
102 -100 -103 0
103 -100 -102 0
102 100 103 0
-103 0
90 104 0
91 104 0
92 104 0
-90 -91 -92 -104 0
104 -105 -106 0
105 -104 -106 0
106 -104 -105 0
105 104 106 0
-106 0
-107 104 -108 0
107 -104 -108 0
108 -104 -107 0
107 104 108 0
-108 0
104 -109 -110 0
109 -104 -110 0
110 -104 -109 0
109 104 110 0
-110 0
2 111 0
75 111 0
76 111 0
112 111 0
113 111 0
-114 0
-115 111 -116 0
115 -111 -116 0
116 -111 -115 0
115 111 116 0
-116 0
2 117 0
75 117 0
76 117 0
113 117 0
-118 0
117 -119 -120 0
119 -117 -120 0
120 -117 -119 0
119 117 120 0
-120 0
89 121 0
90 121 0
91 121 0
92 121 0
122 121 0
123 121 0
-124 0
-125 121 -126 0
125 -121 -126 0
126 -121 -125 0
125 121 126 0
-126 0
89 127 0
90 127 0
91 127 0
92 127 0
123 127 0
-128 0
127 -129 -130 0
129 -127 -130 0
130 -127 -129 0
129 127 130 0
-130 0
52 131 0
53 131 0
54 131 0
55 131 0
132 131 0
133 131 0
134 131 0
135 131 0
-136 0
-137 131 -138 0
137 -131 -138 0
138 -131 -137 0
137 131 138 0
-138 0
52 139 0
53 139 0
54 139 0
55 139 0
133 139 0
134 139 0
135 139 0
-140 0
139 -141 -142 0
141 -139 -142 0
142 -139 -141 0
141 139 142 0
-142 0
52 143 0
53 143 0
54 143 0
55 143 0
134 143 0
135 143 0
-144 0
143 -145 -146 0
145 -143 -146 0
146 -143 -145 0
145 143 146 0
-146 0
52 147 0
53 147 0
54 147 0
55 147 0
135 147 0
-148 0
147 -149 -150 0
149 -147 -150 0
150 -147 -149 0
149 147 150 0
-150 0
5 151 0
6 151 0
152 151 0
153 151 0
154 151 0
-155 0
-156 151 -157 0
156 -151 -157 0
157 -151 -156 0
156 151 157 0
-157 0
5 158 0
6 158 0
153 158 0
154 158 0
-159 0
-160 158 -161 0
160 -158 -161 0
161 -158 -160 0
160 158 161 0
-161 0
5 162 0
6 162 0
154 162 0
-5 -6 -154 -162 0
162 -163 -164 0
163 -162 -164 0
164 -162 -163 0
163 162 164 0
-164 0
90 165 0
91 165 0
92 165 0
166 165 0
167 165 0
-168 0
-169 165 -170 0
169 -165 -170 0
170 -165 -169 0
169 165 170 0
-170 0
90 171 0
91 171 0
92 171 0
167 171 0
-172 0
171 -173 -174 0
173 -171 -174 0
174 -171 -173 0
173 171 174 0
-174 0
3 175 0
5 175 0
6 175 0
16 175 0
176 175 0
-177 0
-178 175 -179 0
178 -175 -179 0
179 -175 -178 0
178 175 179 0
-179 0
180 181 0
182 181 0
183 181 0
184 181 0
185 181 0
186 181 0
187 181 0
-188 0
-189 181 -190 0
189 -181 -190 0
190 -181 -189 0
189 181 190 0
-190 0
182 191 0
183 191 0
184 191 0
185 191 0
186 191 0
187 191 0
-192 0
191 -193 -194 0
193 -191 -194 0
194 -191 -193 0
193 191 194 0
-194 0
183 195 0
184 195 0
185 195 0
186 195 0
187 195 0
-196 0
195 -197 -198 0
197 -195 -198 0
198 -195 -197 0
197 195 198 0
-198 0
184 199 0
185 199 0
186 199 0
187 199 0
-200 0
199 -201 -202 0
201 -199 -202 0
202 -199 -201 0
201 199 202 0
-202 0
185 203 0
186 203 0
187 203 0
-185 -186 -187 -203 0
203 -204 -205 0
204 -203 -205 0
205 -203 -204 0
204 203 205 0
-205 0
203 -206 -207 0
206 -203 -207 0
207 -203 -206 0
206 203 207 0
-207 0
203 -208 -209 0
208 -203 -209 0
209 -203 -208 0
208 203 209 0
-209 0
26 210 0
27 210 0
28 210 0
29 210 0
211 210 0
212 210 0
213 210 0
214 210 0
-215 0
-216 210 -217 0
216 -210 -217 0
217 -210 -216 0
216 210 217 0
-217 0
26 218 0
27 218 0
28 218 0
29 218 0
212 218 0
213 218 0
214 218 0
-219 0
218 -220 -221 0
220 -218 -221 0
221 -218 -220 0
220 218 221 0
-221 0
26 222 0
27 222 0
28 222 0
29 222 0
213 222 0
214 222 0
-223 0
222 -224 -225 0
224 -222 -225 0
225 -222 -224 0
224 222 225 0
-225 0
26 226 0
27 226 0
28 226 0
29 226 0
214 226 0
-227 0
226 -228 -229 0
228 -226 -229 0
229 -226 -228 0
228 226 229 0
-229 0
26 230 0
27 230 0
28 230 0
29 230 0
231 230 0
232 230 0
-233 0
-234 230 -235 0
234 -230 -235 0
235 -230 -234 0
234 230 235 0
-235 0
26 236 0
27 236 0
28 236 0
29 236 0
232 236 0
-237 0
236 -238 -239 0
238 -236 -239 0
239 -236 -238 0
238 236 239 0
-239 0
90 240 0
91 240 0
92 240 0
241 240 0
242 240 0
243 240 0
-244 0
-245 240 -246 0
245 -240 -246 0
246 -240 -245 0
245 240 246 0
-246 0
90 247 0
91 247 0
92 247 0
242 247 0
243 247 0
-248 0
247 -249 -250 0
249 -247 -250 0
250 -247 -249 0
249 247 250 0
-250 0
90 251 0
91 251 0
92 251 0
243 251 0
-252 0
251 -253 -254 0
253 -251 -254 0
254 -251 -253 0
253 251 254 0
-254 0
255 256 0
257 256 0
258 256 0
259 256 0
-260 0
-261 256 -262 0
261 -256 -262 0
262 -256 -261 0
261 256 262 0
-262 0
257 263 0
258 263 0
259 263 0
-257 -258 -259 -263 0
-264 263 -265 0
264 -263 -265 0
265 -263 -264 0
264 263 265 0
-265 0
258 266 0
259 266 0
-258 -259 -266 0
-267 266 -268 0
267 -266 -268 0
268 -266 -267 0
267 266 268 0
-268 0
-269 266 -270 0
269 -266 -270 0
270 -266 -269 0
269 266 270 0
-270 0
5 271 0
6 271 0
272 271 0
273 271 0
274 271 0
275 271 0
-276 0
-277 271 -278 0
277 -271 -278 0
278 -271 -277 0
277 271 278 0
-278 0
5 279 0
6 279 0
273 279 0
274 279 0
275 279 0
-280 0
279 -281 -282 0
281 -279 -282 0
282 -279 -281 0
281 279 282 0
-282 0
5 283 0
6 283 0
274 283 0
275 283 0
-284 0
283 -285 -286 0
285 -283 -286 0
286 -283 -285 0
285 283 286 0
-286 0
5 287 0
6 287 0
275 287 0
-5 -6 -275 -287 0
287 -288 -289 0
288 -287 -289 0
289 -287 -288 0
288 287 289 0
-289 0
90 290 0
91 290 0
92 290 0
167 290 0
291 290 0
292 290 0
293 290 0
-294 0
-295 290 -296 0
295 -290 -296 0
296 -290 -295 0
295 290 296 0
-296 0
90 297 0
91 297 0
92 297 0
167 297 0
292 297 0
293 297 0
-298 0
297 -299 -300 0
299 -297 -300 0
300 -297 -299 0
299 297 300 0
-300 0
90 301 0
91 301 0
92 301 0
167 301 0
293 301 0
-302 0
301 -303 -304 0
303 -301 -304 0
304 -301 -303 0
303 301 304 0
-304 0
185 305 0
186 305 0
187 305 0
306 305 0
-307 0
-308 305 -309 0
308 -305 -309 0
309 -305 -308 0
308 305 309 0
-309 0
185 310 0
186 310 0
187 310 0
311 310 0
312 310 0
313 310 0
314 310 0
-315 0
-316 310 -317 0
316 -310 -317 0
317 -310 -316 0
316 310 317 0
-317 0
185 318 0
186 318 0
187 318 0
312 318 0
313 318 0
314 318 0
-319 0
318 -320 -321 0
320 -318 -321 0
321 -318 -320 0
320 318 321 0
-321 0
185 322 0
186 322 0
187 322 0
313 322 0
314 322 0
-323 0
322 -324 -325 0
324 -322 -325 0
325 -322 -324 0
324 322 325 0
-325 0
185 326 0
186 326 0
187 326 0
314 326 0
-327 0
326 -328 -329 0
328 -326 -329 0
329 -326 -328 0
328 326 329 0
-329 0
257 330 0
258 330 0
259 330 0
331 330 0
332 330 0
-333 0
-334 330 -335 0
334 -330 -335 0
335 -330 -334 0
334 330 335 0
-335 0
257 336 0
258 336 0
259 336 0
332 336 0
-337 0
336 -338 -339 0
338 -336 -339 0
339 -336 -338 0
338 336 339 0
-339 0
23 340 0
25 340 0
26 340 0
27 340 0
28 340 0
29 340 0
341 340 0
-342 0
-343 340 -344 0
343 -340 -344 0
344 -340 -343 0
343 340 344 0
-344 0
258 345 0
259 345 0
346 345 0
347 345 0
348 345 0
-349 0
-350 345 -351 0
350 -345 -351 0
351 -345 -350 0
350 345 351 0
-351 0
258 352 0
259 352 0
347 352 0
348 352 0
-353 0
352 -354 -355 0
354 -352 -355 0
355 -352 -354 0
354 352 355 0
-355 0
258 356 0
259 356 0
348 356 0
-258 -259 -348 -356 0
356 -357 -358 0
357 -356 -358 0
358 -356 -357 0
357 356 358 0
-358 0
5 359 0
6 359 0
273 359 0
274 359 0
275 359 0
360 359 0
361 359 0
362 359 0
-363 0
-364 359 -365 0
364 -359 -365 0
365 -359 -364 0
364 359 365 0
-365 0
5 366 0
6 366 0
273 366 0
274 366 0
275 366 0
361 366 0
362 366 0
-367 0
366 -368 -369 0
368 -366 -369 0
369 -366 -368 0
368 366 369 0
-369 0
5 370 0
6 370 0
273 370 0
274 370 0
275 370 0
362 370 0
-371 0
370 -372 -373 0
372 -370 -373 0
373 -370 -372 0
372 370 373 0
-373 0
26 374 0
27 374 0
28 374 0
29 374 0
375 374 0
376 374 0
377 374 0
-378 0
-379 374 -380 0
379 -374 -380 0
380 -374 -379 0
379 374 380 0
-380 0
26 381 0
27 381 0
28 381 0
29 381 0
376 381 0
377 381 0
-382 0
-383 381 -384 0
383 -381 -384 0
384 -381 -383 0
383 381 384 0
-384 0
26 385 0
27 385 0
28 385 0
29 385 0
377 385 0
-386 0
385 -387 -388 0
387 -385 -388 0
388 -385 -387 0
387 385 388 0
-388 0
5 389 0
6 389 0
154 389 0
390 389 0
391 389 0
392 389 0
-393 0
-394 389 -395 0
394 -389 -395 0
395 -389 -394 0
394 389 395 0
-395 0
5 396 0
6 396 0
154 396 0
391 396 0
392 396 0
-397 0
-398 396 -399 0
398 -396 -399 0
399 -396 -398 0
398 396 399 0
-399 0
5 400 0
6 400 0
154 400 0
392 400 0
-401 0
400 -402 -403 0
402 -400 -403 0
403 -400 -402 0
402 400 403 0
-403 0
255 404 0
257 404 0
258 404 0
259 404 0
405 404 0
-406 0
-407 404 -408 0
407 -404 -408 0
408 -404 -407 0
407 404 408 0
-408 0
3 409 0
5 409 0
6 409 0
410 409 0
411 409 0
412 409 0
-413 0
-414 409 -415 0
414 -409 -415 0
415 -409 -414 0
414 409 415 0
-415 0
3 416 0
5 416 0
6 416 0
411 416 0
412 416 0
-417 0
416 -418 -419 0
418 -416 -419 0
419 -416 -418 0
418 416 419 0
-419 0
3 420 0
5 420 0
6 420 0
412 420 0
-421 0
420 -422 -423 0
422 -420 -423 0
423 -420 -422 0
422 420 423 0
-423 0
424 -2 -425 0
2 -424 -425 0
-424 -2 425 0
2 424 425 0
-425 0
426 -3 -427 0
3 -426 -427 0
-426 -3 427 0
3 426 427 0
-427 0
428 -5 -429 0
5 -428 -429 0
-428 -5 429 0
5 428 429 0
-429 0
430 -6 -431 0
6 -430 -431 0
-430 -6 431 0
6 430 431 0
-431 0
432 -15 -433 0
15 -432 -433 0
-432 -15 433 0
15 432 433 0
-433 0
434 -16 -435 0
16 -434 -435 0
-434 -16 435 0
16 434 435 0
-435 0
436 -23 -437 0
23 -436 -437 0
-436 -23 437 0
23 436 437 0
-437 0
438 -25 -439 0
25 -438 -439 0
-438 -25 439 0
25 438 439 0
-439 0
440 -26 -441 0
26 -440 -441 0
-440 -26 441 0
26 440 441 0
-441 0
442 -27 -443 0
27 -442 -443 0
-442 -27 443 0
27 442 443 0
-443 0
444 -28 -445 0
28 -444 -445 0
-444 -28 445 0
28 444 445 0
-445 0
446 -29 -447 0
29 -446 -447 0
-446 -29 447 0
29 446 447 0
-447 0
448 -49 -449 0
49 -448 -449 0
-448 -49 449 0
49 448 449 0
-449 0
450 -51 -451 0
51 -450 -451 0
-450 -51 451 0
51 450 451 0
-451 0
452 -52 -453 0
52 -452 -453 0
-452 -52 453 0
52 452 453 0
-453 0
454 -53 -455 0
53 -454 -455 0
-454 -53 455 0
53 454 455 0
-455 0
456 -54 -457 0
54 -456 -457 0
-456 -54 457 0
54 456 457 0
-457 0
458 -55 -459 0
55 -458 -459 0
-458 -55 459 0
55 458 459 0
-459 0
460 -74 -461 0
74 -460 -461 0
-460 -74 461 0
74 460 461 0
-461 0
462 -75 -463 0
75 -462 -463 0
-462 -75 463 0
75 462 463 0
-463 0
464 -76 -465 0
76 -464 -465 0
-464 -76 465 0
76 464 465 0
-465 0
466 -86 -467 0
86 -466 -467 0
-466 -86 467 0
86 466 467 0
-467 0
468 -88 -469 0
88 -468 -469 0
-468 -88 469 0
88 468 469 0
-469 0
470 -89 -471 0
89 -470 -471 0
-470 -89 471 0
89 470 471 0
-471 0
472 -90 -473 0
90 -472 -473 0
-472 -90 473 0
90 472 473 0
-473 0
474 -91 -475 0
91 -474 -475 0
-474 -91 475 0
91 474 475 0
-475 0
476 -92 -477 0
92 -476 -477 0
-476 -92 477 0
92 476 477 0
-477 0
478 -112 -479 0
112 -478 -479 0
-478 -112 479 0
112 478 479 0
-479 0
480 -113 -481 0
113 -480 -481 0
-480 -113 481 0
113 480 481 0
-481 0
482 -122 -483 0
122 -482 -483 0
-482 -122 483 0
122 482 483 0
-483 0
484 -123 -485 0
123 -484 -485 0
-484 -123 485 0
123 484 485 0
-485 0
486 -132 -487 0
132 -486 -487 0
-486 -132 487 0
132 486 487 0
-487 0
488 -133 -489 0
133 -488 -489 0
-488 -133 489 0
133 488 489 0
-489 0
490 -134 -491 0
134 -490 -491 0
-490 -134 491 0
134 490 491 0
-491 0
492 -135 -493 0
135 -492 -493 0
-492 -135 493 0
135 492 493 0
-493 0
494 -152 -495 0
152 -494 -495 0
-494 -152 495 0
152 494 495 0
-495 0
496 -153 -497 0
153 -496 -497 0
-496 -153 497 0
153 496 497 0
-497 0
498 -154 -499 0
154 -498 -499 0
-498 -154 499 0
154 498 499 0
-499 0
500 -166 -501 0
166 -500 -501 0
-500 -166 501 0
166 500 501 0
-501 0
502 -167 -503 0
167 -502 -503 0
-502 -167 503 0
167 502 503 0
-503 0
504 -176 -505 0
176 -504 -505 0
-504 -176 505 0
176 504 505 0
-505 0
506 -180 -507 0
180 -506 -507 0
-506 -180 507 0
180 506 507 0
-507 0
508 -182 -509 0
182 -508 -509 0
-508 -182 509 0
182 508 509 0
-509 0
510 -183 -511 0
183 -510 -511 0
-510 -183 511 0
183 510 511 0
-511 0
512 -184 -513 0
184 -512 -513 0
-512 -184 513 0
184 512 513 0
-513 0
514 -185 -515 0
185 -514 -515 0
-514 -185 515 0
185 514 515 0
-515 0
516 -186 -517 0
186 -516 -517 0
-516 -186 517 0
186 516 517 0
-517 0
518 -187 -519 0
187 -518 -519 0
-518 -187 519 0
187 518 519 0
-519 0
520 -211 -521 0
211 -520 -521 0
-520 -211 521 0
211 520 521 0
-521 0
522 -212 -523 0
212 -522 -523 0
-522 -212 523 0
212 522 523 0
-523 0
524 -213 -525 0
213 -524 -525 0
-524 -213 525 0
213 524 525 0
-525 0
526 -214 -527 0
214 -526 -527 0
-526 -214 527 0
214 526 527 0
-527 0
528 -231 -529 0
231 -528 -529 0
-528 -231 529 0
231 528 529 0
-529 0
530 -232 -531 0
232 -530 -531 0
-530 -232 531 0
232 530 531 0
-531 0
532 -241 -533 0
241 -532 -533 0
-532 -241 533 0
241 532 533 0
-533 0
534 -242 -535 0
242 -534 -535 0
-534 -242 535 0
242 534 535 0
-535 0
536 -243 -537 0
243 -536 -537 0
-536 -243 537 0
243 536 537 0
-537 0
538 -255 -539 0
255 -538 -539 0
-538 -255 539 0
255 538 539 0
-539 0
540 -257 -541 0
257 -540 -541 0
-540 -257 541 0
257 540 541 0
-541 0
542 -258 -543 0
258 -542 -543 0
-542 -258 543 0
258 542 543 0
-543 0
544 -259 -545 0
259 -544 -545 0
-544 -259 545 0
259 544 545 0
-545 0
546 -272 -547 0
272 -546 -547 0
-546 -272 547 0
272 546 547 0
-547 0
548 -273 -549 0
273 -548 -549 0
-548 -273 549 0
273 548 549 0
-549 0
550 -274 -551 0
274 -550 -551 0
-550 -274 551 0
274 550 551 0
-551 0
552 -275 -553 0
275 -552 -553 0
-552 -275 553 0
275 552 553 0
-553 0
554 -291 -555 0
291 -554 -555 0
-554 -291 555 0
291 554 555 0
-555 0
556 -292 -557 0
292 -556 -557 0
-556 -292 557 0
292 556 557 0
-557 0
558 -293 -559 0
293 -558 -559 0
-558 -293 559 0
293 558 559 0
-559 0
560 -306 -561 0
306 -560 -561 0
-560 -306 561 0
306 560 561 0
-561 0
562 -311 -563 0
311 -562 -563 0
-562 -311 563 0
311 562 563 0
-563 0
564 -312 -565 0
312 -564 -565 0
-564 -312 565 0
312 564 565 0
-565 0
566 -313 -567 0
313 -566 -567 0
-566 -313 567 0
313 566 567 0
-567 0
568 -314 -569 0
314 -568 -569 0
-568 -314 569 0
314 568 569 0
-569 0
570 -331 -571 0
331 -570 -571 0
-570 -331 571 0
331 570 571 0
-571 0
572 -332 -573 0
332 -572 -573 0
-572 -332 573 0
332 572 573 0
-573 0
574 -341 -575 0
341 -574 -575 0
-574 -341 575 0
341 574 575 0
-575 0
576 -346 -577 0
346 -576 -577 0
-576 -346 577 0
346 576 577 0
-577 0
578 -347 -579 0
347 -578 -579 0
-578 -347 579 0
347 578 579 0
-579 0
580 -348 -581 0
348 -580 -581 0
-580 -348 581 0
348 580 581 0
-581 0
582 -360 -583 0
360 -582 -583 0
-582 -360 583 0
360 582 583 0
-583 0
584 -361 -585 0
361 -584 -585 0
-584 -361 585 0
361 584 585 0
-585 0
586 -362 -587 0
362 -586 -587 0
-586 -362 587 0
362 586 587 0
-587 0
588 -375 -589 0
375 -588 -589 0
-588 -375 589 0
375 588 589 0
-589 0
590 -376 -591 0
376 -590 -591 0
-590 -376 591 0
376 590 591 0
-591 0
592 -377 -593 0
377 -592 -593 0
-592 -377 593 0
377 592 593 0
-593 0
594 -390 -595 0
390 -594 -595 0
-594 -390 595 0
390 594 595 0
-595 0
596 -391 -597 0
391 -596 -597 0
-596 -391 597 0
391 596 597 0
-597 0
598 -392 -599 0
392 -598 -599 0
-598 -392 599 0
392 598 599 0
-599 0
600 -405 -601 0
405 -600 -601 0
-600 -405 601 0
405 600 601 0
-601 0
602 -410 -603 0
410 -602 -603 0
-602 -410 603 0
410 602 603 0
-603 0
604 -411 -605 0
411 -604 -605 0
-604 -411 605 0
411 604 605 0
-605 0
606 -412 -607 0
412 -606 -607 0
-606 -412 607 0
412 606 607 0
-607 0
1 0
-7 0
-12 0
-18 0
-31 0
-45 0
-47 0
-57 0
-78 0
-81 0
-94 0
-107 0
-115 0
-125 0
-137 0
-156 0
-160 0
-169 0
-178 0
-189 0
-216 0
-234 0
-245 0
-261 0
-264 0
-267 0
-269 0
-277 0
-295 0
-308 0
-316 0
-334 0
-343 0
-350 0
-364 0
-379 0
-383 0
-394 0
-398 0
-407 0
-414 0
